NAME : portcgen-20-60
COMMENT : portcgen N=20, seed=60
TYPE : TSP
DIMENSION : 20
EDGE_WEIGHT_TYPE : EUC_2D
NODE_COORD_SECTION
1 100 69
2 69 70
3 78 48
4 86 69
5 58 98
6 110 70
7 75 55
8 98 65
9 99 69
10 99 105
11 62 66
12 68 94
13 82 98
14 92 72
15 60 91
16 82 54
17 94 60
18 80 71
19 69 70
20 77 90
